150 7238
1 34 98 103 82 95 107 5 100 143 97 75 26 146 56 83 141 81 110 47 40 53 24 118 127 69 36 61 11 148 130 60 17 66 140 117 27 31 123 74 13 106 91 119 68 128 4 104 22 125 149 62 21 115 150 45 71 44 64 112 136 145 72 147 49 144 129 41 39 57 101 116 12 139 120 42 28 6 9 37 2 19 99 114 102 137 132 85 142 18 65 55 58 50 135 70 108 86 29 25 20 90 46 92 105 111 16 59 79 88 3 113 10 94 121 78 15 133 14 80 122 77 131 32 23 38 67 43 109 51 134 138 54 33 126 52 93 124 35 96 89 84 7 8 30 63 48 73 76 87 
